src/RACER/swarm_exploration/utils/lkh_mtsp_solver/resource/amtsp_2.atsp
NAME : amtsp
TYPE : ATSP
DIMENSION : 8
EDGE_WEIGHT_TYPE : EXPLICIT
EDGE_WEIGHT_FORMAT : FULL_MATRIX
EDGE_WEIGHT_SECTION
100000 -100000 100000 100000 100000 100000 100000 100000 
100000 100000 428 428 428 428 265 100000 
0 0 100000 0 0 0 234 593 
0 0 0 100000 0 0 234 593 
0 0 0 0 100000 0 234 593 
0 0 0 0 0 100000 234 593 
0 0 234 234 234 234 100000 418 
-100000 100000 593 593 593 593 418 100000 
