src/RACER/swarm_exploration/utils/lkh_mtsp_solver/resource/amtsp_2.tour
NAME : amtsp.-99794.tour
COMMENT : Length = -99794
COMMENT : Found by LKH [Keld Helsgaun] Wed Apr 30 11:03:25 2025
TYPE : TOUR
DIMENSION : 3
TOUR_SECTION
1
2
3
-1
EOF
